c Generated map
c Size: 12 * 12, weights in range: 1 to 10, walls: True, with ratio 0.05
c dim 1 of 5
c
p sp 144 238
c graph contains 144 nodes and 238 arcs
c
a 1 13 7
a 13 1 7
a 1 2 7
a 2 1 7
a 2 14 1
a 14 2 1
a 2 3 2
a 3 2 2
a 3 15 10
a 15 3 10
a 3 4 6
a 4 3 6
a 4 16 9
a 16 4 9
a 6 18 6
a 18 6 6
a 6 7 5
a 7 6 5
a 7 19 9
a 19 7 9
a 7 8 4
a 8 7 4
a 8 20 1
a 20 8 1
a 8 9 3
a 9 8 3
a 9 21 6
a 21 9 6
a 9 10 10
a 10 9 10
a 10 22 2
a 22 10 2
a 10 11 5
a 11 10 5
a 11 23 5
a 23 11 5
a 11 12 3
a 12 11 3
a 12 24 8
a 24 12 8
a 13 25 2
a 25 13 2
a 13 14 4
a 14 13 4
a 14 26 1
a 26 14 1
a 14 15 7
a 15 14 7
a 15 27 7
a 27 15 7
a 15 16 6
a 16 15 6
a 16 28 3
a 28 16 3
a 16 17 1
a 17 16 1
a 17 29 7
a 29 17 7
a 17 18 5
a 18 17 5
a 18 30 10
a 30 18 10
a 18 19 9
a 19 18 9
a 19 31 6
a 31 19 6
a 19 20 9
a 20 19 9
a 20 32 5
a 32 20 5
a 20 21 8
a 21 20 8
a 21 22 2
a 22 21 2
a 22 34 2
a 34 22 2
a 22 23 10
a 23 22 10
a 23 35 8
a 35 23 8
a 23 24 7
a 24 23 7
a 24 36 5
a 36 24 5
a 25 37 1
a 37 25 1
a 25 26 7
a 26 25 7
a 26 38 7
a 38 26 7
a 26 27 10
a 27 26 10
a 27 39 3
a 39 27 3
a 27 28 4
a 28 27 4
a 28 40 8
a 40 28 8
a 28 29 7
a 29 28 7
a 29 41 6
a 41 29 6
a 29 30 6
a 30 29 6
a 30 42 10
a 42 30 10
a 30 31 3
a 31 30 3
a 31 43 8
a 43 31 8
a 31 32 1
a 32 31 1
a 32 44 8
a 44 32 8
a 34 46 5
a 46 34 5
a 34 35 8
a 35 34 8
a 35 47 10
a 47 35 10
a 35 36 2
a 36 35 2
a 36 48 5
a 48 36 5
a 37 49 6
a 49 37 6
a 37 38 10
a 38 37 10
a 38 50 4
a 50 38 4
a 38 39 2
a 39 38 2
a 39 51 1
a 51 39 1
a 39 40 9
a 40 39 9
a 40 52 9
a 52 40 9
a 40 41 1
a 41 40 1
a 41 53 4
a 53 41 4
a 41 42 7
a 42 41 7
a 42 54 7
a 54 42 7
a 42 43 7
a 43 42 7
a 43 55 2
a 55 43 2
a 43 44 7
a 44 43 7
a 44 56 9
a 56 44 9
a 44 45 5
a 45 44 5
a 45 57 5
a 57 45 5
a 45 46 2
a 46 45 2
a 46 58 6
a 58 46 6
a 46 47 8
a 47 46 8
a 47 59 1
a 59 47 1
a 47 48 6
a 48 47 6
a 49 61 6
a 61 49 6
a 49 50 5
a 50 49 5
a 50 62 5
a 62 50 5
a 50 51 2
a 51 50 2
a 51 63 2
a 63 51 2
a 51 52 6
a 52 51 6
a 52 64 7
a 64 52 7
a 52 53 4
a 53 52 4
a 53 65 5
a 65 53 5
a 53 54 7
a 54 53 7
a 54 66 8
a 66 54 8
a 54 55 4
a 55 54 4
a 55 67 1
a 67 55 1
a 55 56 4
a 56 55 4
a 56 68 6
a 68 56 6
a 56 57 5
a 57 56 5
a 57 69 10
a 69 57 10
a 57 58 7
a 58 57 7
a 58 70 9
a 70 58 9
a 58 59 3
a 59 58 3
a 59 71 1
a 71 59 1
a 61 73 3
a 73 61 3
a 61 62 4
a 62 61 4
a 62 74 3
a 74 62 3
a 62 63 2
a 63 62 2
a 63 75 1
a 75 63 1
a 63 64 6
a 64 63 6
a 64 76 9
a 76 64 9
a 64 65 8
a 65 64 8
a 65 77 5
a 77 65 5
a 65 66 3
a 66 65 3
a 66 78 4
a 78 66 4
a 66 67 9
a 67 66 9
a 67 79 10
a 79 67 10
a 67 68 4
a 68 67 4
a 68 80 8
a 80 68 8
a 68 69 3
a 69 68 3
a 69 81 9
a 81 69 9
a 69 70 5
a 70 69 5
a 70 82 1
a 82 70 1
a 70 71 4
a 71 70 4
a 71 83 2
a 83 71 2
a 71 72 3
a 72 71 3
a 72 84 2
a 84 72 2
a 73 85 1
a 85 73 1
a 73 74 6
a 74 73 6
a 74 86 7
a 86 74 7
a 74 75 4
a 75 74 4
a 75 87 6
a 87 75 6
a 75 76 1
a 76 75 1
a 76 88 7
a 88 76 7
a 76 77 4
a 77 76 4
a 77 78 9
a 78 77 9
a 78 90 9
a 90 78 9
a 78 79 5
a 79 78 5
a 79 91 10
a 91 79 10
a 79 80 8
a 80 79 8
a 80 92 7
a 92 80 7
a 80 81 7
a 81 80 7
a 81 93 7
a 93 81 7
a 81 82 6
a 82 81 6
a 82 94 10
a 94 82 10
a 82 83 1
a 83 82 1
a 83 95 6
a 95 83 6
a 83 84 6
a 84 83 6
a 84 96 3
a 96 84 3
a 85 97 8
a 97 85 8
a 85 86 2
a 86 85 2
a 86 98 10
a 98 86 10
a 86 87 7
a 87 86 7
a 87 99 10
a 99 87 10
a 87 88 9
a 88 87 9
a 88 100 10
a 100 88 10
a 90 102 9
a 102 90 9
a 90 91 6
a 91 90 6
a 91 103 6
a 103 91 6
a 91 92 9
a 92 91 9
a 92 104 9
a 104 92 9
a 92 93 1
a 93 92 1
a 93 94 9
a 94 93 9
a 94 106 4
a 106 94 4
a 94 95 3
a 95 94 3
a 95 107 10
a 107 95 10
a 95 96 4
a 96 95 4
a 96 108 3
a 108 96 3
a 97 109 9
a 109 97 9
a 97 98 2
a 98 97 2
a 98 110 6
a 110 98 6
a 98 99 7
a 99 98 7
a 99 100 8
a 100 99 8
a 100 112 4
a 112 100 4
a 100 101 3
a 101 100 3
a 101 113 1
a 113 101 1
a 101 102 8
a 102 101 8
a 102 114 8
a 114 102 8
a 102 103 1
a 103 102 1
a 103 115 2
a 115 103 2
a 103 104 5
a 104 103 5
a 104 116 2
a 116 104 2
a 106 118 4
a 118 106 4
a 106 107 4
a 107 106 4
a 107 119 4
a 119 107 4
a 107 108 3
a 108 107 3
a 108 120 3
a 120 108 3
a 109 121 8
a 121 109 8
a 109 110 10
a 110 109 10
a 110 122 3
a 122 110 3
a 112 113 3
a 113 112 3
a 113 125 6
a 125 113 6
a 113 114 7
a 114 113 7
a 114 126 4
a 126 114 4
a 114 115 7
a 115 114 7
a 115 127 5
a 127 115 5
a 115 116 10
a 116 115 10
a 116 128 1
a 128 116 1
a 116 117 8
a 117 116 8
a 117 129 8
a 129 117 8
a 117 118 5
a 118 117 5
a 118 130 1
a 130 118 1
a 118 119 3
a 119 118 3
a 119 131 6
a 131 119 6
a 119 120 3
a 120 119 3
a 120 132 8
a 132 120 8
a 121 133 6
a 133 121 6
a 121 122 5
a 122 121 5
a 122 134 3
a 134 122 3
a 122 123 3
a 123 122 3
a 123 135 1
a 135 123 1
a 125 137 5
a 137 125 5
a 125 126 6
a 126 125 6
a 126 138 7
a 138 126 7
a 126 127 4
a 127 126 4
a 127 139 9
a 139 127 9
a 127 128 4
a 128 127 4
a 128 140 1
a 140 128 1
a 128 129 4
a 129 128 4
a 129 141 4
a 141 129 4
a 129 130 7
a 130 129 7
a 130 142 7
a 142 130 7
a 130 131 9
a 131 130 9
a 131 143 2
a 143 131 2
a 131 132 7
a 132 131 7
a 132 144 10
a 144 132 10
a 133 134 8
a 134 133 8
a 134 135 4
a 135 134 4
a 135 136 5
a 136 135 5
a 136 137 9
a 137 136 9
a 137 138 6
a 138 137 6
a 138 139 6
a 139 138 6
a 139 140 1
a 140 139 1
a 140 141 4
a 141 140 4
a 141 142 3
a 142 141 3
a 142 143 6
a 143 142 6
a 143 144 5
a 144 143 5
